c --- [ banner ] -------------------------------------------------------------
c 
c CaDiCaL Radically Simplified CDCL SAT Solver
c Copyright (c) 2016-2021 A. Biere, M. Fleury, N. Froleyks
c 
c Version 1.5.2 9c38a080b32c28d805e8e6ca21849856b0cda605
c g++ (Ubuntu 7.5.0-3ubuntu1~18.04) 7.5.0 -Wall -Wextra -O3 -DNDEBUG
c Wed Feb 16 23:15:36 EST 2022 Linux fac-vanhoeve01 5.4.0-99-generic x86_64
c 
c --- [ limit ] --------------------------------------------------------------
c 
c setting time limit to 600 seconds real time (due to '-t 600')
c setting conflict limit to 1000000000 conflicts (due to '1000000000')
c 
c --- [ parsing input ] ------------------------------------------------------
c 
c reading DIMACS file from 'ddfwcnfs/wap07a.col_40.cnf'
c opening file to read 'ddfwcnfs/wap07a.col_40.cnf'
c found 'p cnf 72360 3903769' header
c parsed 3903769 clauses in 2.33 seconds process time
c closing file 'ddfwcnfs/wap07a.col_40.cnf'
c after reading 62064102 bytes 59.2 MB
c 
c --- [ options ] ------------------------------------------------------------
c 
c all options are set to their default value
c 
c --- [ solving ] ------------------------------------------------------------
c 
c time measured in process time since initialization
c 
c  seconds   reductions  redundant   irredundant
c          MB    restarts       trail        variables
c           level   conflicts       glue          remaining
c 
c *  2.33 337  0 0   0    0    0  0% 0 3897796 70437 97%
c {  2.36 338  0 0   0    0    0  0% 0 3897796 70437 97%
c -  3.06 338 36 1   9  300  237 13% 25 3864379 70437 97%
c }  3.19 338 34 1  57 1001  621 12% 28 3864379 70437 97%
c [  3.19 338  0 1  57 1001  621  0% 0 3864379 70437 97%
c O  3.19 338 38 1  57 1002  622  4% 38 3864379 70437 97%
c -  5.01 427 41 2  57 1852  863  5% 38 3864379 70437 97%
c ]  5.11 427 45 2  58 3003 1804  5% 41 3864379 70437 97%
c {  5.11 427 34 2  58 3003 1804 12% 28 3864379 70437 97%
c F  5.11 427 34 2  58 3004 1805 12% 28 3864379 70437 97%
c -  6.69 428 69 3 337 4180 1618 12% 32 3864379 70437 97%
c # 10.17 426 55 3 561 6005 2370 12% 34 3864379 70437 97%
c } 10.27 426 53 3 578 7003 3006 12% 35 3864379 70437 97%
c [ 10.27 426 45 3 578 7003 3006  5% 41 3864379 70437 97%
c - 11.56 426 47 4 579 7284 2028  5% 41 3864379 70437 97%
c I 11.79 426 54 4 580 10007 3956  5% 41 3864379 70437 97%
c - 13.15 426 586 5 581 11164 3340  8% 40 3864379 70437 97%
c s 14.44 441 911 5 582 11581 3519 10% 42 3864379 70437 97%
c e 21.88 441 911 5 582 11581  421 10% 42 3268041 64185 89%
c s 23.19 463 911 5 582 11581  420 10% 42 3268041 64185 89%
c 
c  seconds    reductions   redundant    irredundant
c          MB     restarts        trail         variables
c            level    conflicts       glue           remaining
c 
c ^ 23.87 463 911 5 582 11581  420 10% 42 3268041 64185 89%
c ] 29.31 451 960 5 583 15003 3198 38% 53 3268041 64185 89%
c { 29.31 451 53 5 583 15003 3198 14% 35 3268041 64185 89%
c B 29.33 451 54 5 585 15008 3203 14% 35 3268041 64185 89%
c - 30.96 452 62 6 616 15821 3652 13% 34 3268041 64185 89%
c W 32.70 452 51 6 616 21010 7525  9% 29 3268041 64185 89%
c - 33.95 452 53 7 634 21104 4970  9% 29 3268041 64185 89%
c - 35.60 452 47 8 2168 27138 3121  8% 31 3268041 64185 89%
c F 35.68 452 47 8 2363 28012 3390  8% 32 3268041 64185 89%
c } 38.88 452 45 8 2463 31003 5103  9% 32 3268041 64185 89%
c [ 38.88 452 960 8 2463 31003 5103 38% 53 3268041 64185 89%
c - 40.39 453 769 9 2464 33927 5384 32% 57 3268041 64185 89%
c s 40.55 453 751 9 2464 34266 5657 32% 58 3268041 64185 89%
c s 45.98 453 751 9 2464 34266 5654 32% 58 3268041 64185 89%
c ^ 46.62 453 751 9 2464 34266 5654 32% 58 3268041 64185 89%
c B 46.82 453 666 9 2466 36013 7126 28% 57 3268041 64185 89%
c - 49.27 455 647 10 2469 41469 7975 26% 77 3268041 64185 89%
c W 51.36 455 566 10 2470 45014 10773 24% 82 3268041 64185 89%
c - 53.10 455 485 11 2471 49767 8649 21% 84 3268041 64185 89%
c O 57.02 455 423 11 2472 55016 12715 19% 84 3268041 64185 89%
c 
c  seconds    reductions     redundant    irredundant
c          MB      restarts         trail         variables
c            level      conflicts       glue           remaining
c 
c - 58.57 454 378 12 2475 58819 9437 18% 79 3268041 64185 89%
c ] 59.03 454 338 12 2478 63003 12061 16% 74 3268041 64185 89%
c { 59.03 454 45 12 2478 63003 12061  9% 32 3268041 64185 89%
c B 59.34 454 47 12 2480 66017 14411  9% 32 3268041 64185 89%
c s 59.92 454 47 12 2982 68287 15073  9% 32 3268041 64185 89%
c s 65.93 454 47 12 2982 68287 14740  9% 32 3268041 64185 89%
c ^ 66.69 454 47 12 2982 68287 14740  9% 32 3268041 64185 89%
c - 68.12 453 47 13 2996 68628 8804  9% 32 3268041 64185 89%
c W 74.17 453 45 13 3662 78019 13021  9% 33 3268041 64185 89%
c - 75.60 453 47 14 3834 79190 7118  9% 34 3268041 64185 89%
c - 78.09 453 45 15 4456 90505 7717  9% 35 3268041 64185 89%
c # 78.16 453 45 15 4464 91025 7995  9% 35 3268041 64185 89%
c - 80.26 453 43 16 4484 102573 9410  9% 34 3268041 64185 89%
c B 83.44 453 42 16 4484 105026 10834  9% 34 3268041 64185 89%
c s 84.97 453 44 16 5218 113648 11558  9% 35 3268041 64185 89%
c s 90.57 453 44 16 5218 113648 10736  9% 35 3268041 64185 89%
c ^ 91.18 453 44 16 5218 113648 10736  9% 35 3268041 64185 89%
c - 92.55 453 44 17 5299 115396 7213  9% 35 3268041 64185 89%
c W 95.90 453 43 17 5459 120028 9218  9% 35 3268041 64185 89%
c } 96.53 453 43 17 5678 127005 12392  9% 35 3268041 64185 89%
c 
c  seconds    reductions       redundant    irredundant
c          MB      restarts           trail         variables
c            level      conflicts         glue           remaining
c 
c [ 96.53 453 338 17 5678 127005 12392 16% 74 3268041 64185 89%
c - 97.82 453 323 18 5678 128973 8734 16% 72 3268041 64185 89%
c B 98.83 453 276 18 5683 136029 13544 14% 67 3268041 64185 89%
c - 105.51 457 766 19 5686 143307 13693 18% 82 3268041 64185 89%
c W 111.39 457 729 19 5687 153030 21605 21% 89 3268041 64185 89%
c - 113.58 460 817 20 5687 158392 15401 21% 90 3268041 64185 89%
c s 116.05 460 897 20 5690 170351 23095 21% 95 3268041 64185 89%
c s 122.12 460 897 20 5690 170351 23087 21% 95 3268041 64185 89%
c ^ 122.74 460 897 20 5690 170351 23087 21% 95 3268041 64185 89%
c I 122.87 460 888 20 5690 171038 23608 20% 95 3268041 64185 89%
c - 124.94 459 1198 21 5693 174234 16212 21% 95 3268041 64185 89%
c B 130.17 459 955 21 5701 190039 28213 18% 88 3268041 64185 89%
c - 131.37 457 945 22 5701 190829 16792 18% 87 3268041 64185 89%
c - 135.02 457 757 23 5708 208177 18024 15% 80 3268041 64185 89%
c W 139.56 457 740 23 5709 210040 19396 15% 80 3268041 64185 89%
c - 146.59 456 611 24 5717 226279 19403 14% 73 3268041 64185 89%
c O 147.15 456 580 24 5717 231042 23128 13% 71 3268041 64185 89%
c s 147.85 456 531 24 5718 238393 27154 12% 67 3268041 64185 89%
c s 153.68 456 531 24 5718 238393 25627 12% 67 3268041 64185 89%
c - 155.88 454 490 25 5718 245137 16722 12% 64 3268041 64185 89%
c 
c  seconds     reductions       redundant    irredundant
c           MB      restarts           trail         variables
c             level      conflicts         glue           remaining
c 
c B 156.67 454 450 25 5719 253043 22362 11% 61 3268041 64185 89%
c ] 157.50 454 1059 25 5719 255006 24077 12% 68 3268041 64185 89%
c { 157.50 454 43 25 5719 255006 24077  9% 35 3268041 64185 89%
c - 159.87 457 44 26 5843 264749 18560  9% 35 3268041 64185 89%
c F 164.45 457 43 26 5923 276047 24846  8% 35 3268041 64185 89%
c - 166.65 454 42 27 5934 285116 17557  8% 35 3268041 64185 89%
c B 168.06 454 42 27 5993 300055 27448  8% 35 3268041 64185 89%
c - 169.97 455 43 28 6124 306238 18828  8% 35 3268041 64185 89%
c W 177.82 455 45 28 6302 325061 33026  8% 35 3268041 64185 89%
c - 179.28 456 46 29 6346 328112 21519  8% 35 3268041 64185 89%
c - 185.46 455 44 30 6388 350741 20131  8% 35 3268041 64185 89%
c # 185.50 455 44 30 6388 351062 20310  8% 35 3268041 64185 89%
c - 189.05 455 43 31 6437 374123 21583  8% 34 3268041 64185 89%
c B 189.40 455 43 31 6437 378064 24278  8% 34 3268041 64185 89%
c - 195.57 454 42 32 7554 398260 17583  8% 35 3268041 64185 89%
c W 202.81 454 41 32 7752 406065 21286  8% 35 3268041 64185 89%
c - 206.01 455 41 33 7940 423151 18768  8% 35 3268041 64185 89%
c F 207.29 455 40 33 7947 435066 25603  8% 34 3268041 64185 89%
c - 210.00 455 40 34 7956 448797 22653  8% 33 3268041 64185 89%
c B 215.44 455 39 34 7999 465068 33845  8% 33 3268041 64185 89%
c 
c  seconds    reductions        redundant    irredundant
c           MB      restarts           trail         variables
c            level       conflicts         glue           remaining
c 
c - 218.10 455 40 35 10112 475197 20828  8% 33 3268041 64185 89%
c W 228.51 455 39 35 12098 496072 28683  8% 34 3268041 64185 89%
c - 230.83 454 40 36 12642 502351 16014  8% 34 3268041 64185 89%
c } 231.75 454 40 36 13122 511007 20001  8% 35 3268041 64185 89%
c [ 231.75 454 1059 36 13122 511007 20001 12% 68 3268041 64185 89%
c W 245.84 454 958 36 13122 528073 31755 12% 65 3268041 64185 89%
c - 247.43 456 938 37 13122 530262 21715 12% 65 3268041 64185 89%
c - 252.47 458 799 38 13135 558925 26281 12% 62 3268041 64185 89%
c I 252.78 458 782 38 13136 561076 27811 12% 61 3268041 64185 89%
c - 260.77 466 1914 39 13147 588343 30654 16% 77 3268041 64185 89%
c B 262.18 466 1806 39 13151 595082 35869 16% 78 3268041 64185 89%
c - 272.95 468 3810 40 13153 618517 32376 20% 89 3268041 64185 89%
c W 285.97 468 4293 40 13159 630083 42115 22% 93 3268041 64185 89%
c - 290.45 465 3554 41 13168 649444 33820 21% 92 3268041 64185 89%
c s 290.65 465 3554 41 13168 649444 33371 21% 92 3268041 64185 89%
c w 294.01 465 3554 41 13168 649444 33358 21% 92 3268041 64185 89%
c O 297.50 465 3202 41 13175 666085 46587 21% 90 3268041 64185 89%
c - 304.07 461 2750 42 13183 681124 34890 19% 84 3268041 64185 89%
c B 306.95 461 2208 42 13184 703087 49411 17% 76 3268041 64185 89%
c - 310.13 460 2505 43 13185 713558 33673 19% 77 3268041 64185 89%
c 
c  seconds      reductions        redundant    irredundant
c           MB        restarts           trail         variables
c             level        conflicts         glue           remaining
c 
c W 326.61 460 2078 43 13186 741089 53692 23% 80 3268041 64185 89%
c - 328.78 462 1973 44 13186 746746 32947 23% 78 3268041 64185 89%
c I 337.10 462 1438 44 13186 780090 58607 20% 69 3268041 64185 89%
c - 339.07 462 1663 45 13186 780688 35107 21% 76 3268041 64185 89%
c - 367.84 538 8641 46 13193 815387 38991 30% 237 3268041 64185 89%
c B 368.70 538 8251 46 13196 820091 42681 29% 230 3268041 64185 89%
c - 375.18 464 6110 47 13209 850840 37791 24% 188 3268041 64185 89%
c W 392.72 464 5528 47 13215 861092 45602 23% 177 3268041 64185 89%
c - 400.01 469 5772 48 13217 887045 39746 24% 162 3268041 64185 89%
c O 403.03 469 5043 48 13227 903094 52847 24% 149 3268041 64185 89%
c - 406.76 463 4107 49 13235 924005 39908 21% 130 3268041 64185 89%
c B 409.82 463 3309 49 13247 946095 55789 19% 113 3268041 64185 89%
c - 419.05 468 3516 50 13248 961719 42414 21% 120 3268041 64185 89%
c W 438.24 468 2692 50 13249 990097 64276 21% 110 3268041 64185 89%
c - 441.00 466 3168 51 13249 1000188 41700 24% 106 3268041 64185 89%
c ] 445.66 466 2988 51 13262 1023007 59466 25% 106 3268041 64185 89%
c { 445.66 466 40 51 13262 1023007 59466  8% 35 3268041 64185 89%
c # 447.07 466 40 51 13545 1035101 65630  8% 35 3268041 64185 89%
c - 448.73 464 40 52 13549 1039411 38619  8% 35 3268041 64185 89%
c - 457.06 457 39 53 13672 1079390 33929  8% 35 3268041 64185 89%
c 
c  seconds    reductions         redundant    irredundant
c           MB      restarts            trail         variables
c            level        conflicts         glue           remaining
c 
c B 457.24 457 39 53 13672 1081103 34773  8% 35 3268041 64185 89%
c - 463.10 459 41 54 14110 1120122 39301  8% 35 3268041 64185 89%
c s 463.32 459 41 54 14110 1120122 39236  8% 35 3268041 64185 89%
c w 466.38 459 41 54 14110 1120122 39223  8% 35 3268041 64185 89%
c W 482.28 459 47 54 14300 1128105 45485  8% 35 3268041 64185 89%
c - 489.60 458 46 55 14732 1161608 36837  8% 35 3268041 64185 89%
c F 490.84 458 45 55 14833 1176106 44289  8% 35 3268041 64185 89%
c - 494.35 458 43 56 14902 1203849 37165  8% 34 3268041 64185 89%
c B 496.38 458 41 56 14966 1225107 52164  8% 34 3268041 64185 89%
c - 499.33 457 41 57 15533 1246845 35683  8% 34 3268041 64185 89%
c W 521.98 457 40 57 15900 1275112 50372  8% 34 3268041 64185 89%
c - 524.52 457 40 58 16078 1290595 32525  8% 34 3268041 64185 89%
c # 527.81 457 39 58 16422 1326114 50296  8% 35 3268041 64185 89%
c - 529.71 457 39 59 16453 1335099 32736  8% 35 3268041 64185 89%
c B 533.88 457 39 59 16855 1378115 59268  8% 35 3268041 64185 89%
c - 538.29 458 40 60 17392 1380357 36660  8% 35 3268041 64185 89%
c - 543.56 458 41 61 18186 1426370 38178  8% 35 3268041 64185 89%
c W 562.47 458 41 61 18203 1431118 41054  8% 35 3268041 64185 89%
c - 567.48 458 41 62 18670 1473137 38717  8% 35 3268041 64185 89%
c F 568.81 458 40 62 18781 1485119 45683  8% 35 3268041 64185 89%
c 
c  seconds    reductions         redundant    irredundant
c           MB      restarts            trail         variables
c            level        conflicts         glue           remaining
c 
c - 576.16 458 40 63 18875 1520657 42111  7% 35 3268041 64185 89%
c B 578.37 458 39 63 18925 1540120 54857  7% 34 3268041 64185 89%
c - 582.42 458 40 64 19754 1568932 39583  7% 35 3268041 64185 89%
c } 600.28 458 40 64 20241 1596120 53526  8% 35 3268041 64185 89%
c ? 600.28 458 40 64 20241 1596120 53526  8% 35 3268041 64185 89%
c 
c --- [ result ] -------------------------------------------------------------
c 
c UNKNOWN
c 
c --- [ run-time profiling ] -------------------------------------------------
c 
c process time taken by individual solving procedures
c (percentage relative to process time for solving)
c 
c       478.71   80.06% search
c       185.07   30.95% stable
c       157.95   26.41% walk
c       135.65   22.69% unstable
c       119.25   19.94% simplify
c        30.61    5.12% ternary
c        19.43    3.25% elim
c        16.69    2.79% vivify
c        16.20    2.71% probe
c         4.08    0.68% subsume
c         2.33    0.39% parse
c         0.03    0.01% lucky
c   =================================
c       597.95   99.61% solve
c 
c last line shows process time for solving
c (percentage relative to total process time)
c 
c --- [ statistics ] ---------------------------------------------------------
c 
c chronological:            277558        17.39 %  of conflicts
c conflicts:               1596120      2669.31    per second
c decisions:               2694127      4505.58    per second
c eliminated:                 6252         8.64 %  of all variables
c fixed:                      1923         2.66 %  of all variables
c learned:                 1578878        98.92 %  per conflict
c learned_lits:          213346473       100.00 %  learned literals
c minimized:                     0         0.00 %  learned literals
c shrunken:               80446978        37.71 %  learned literals
c minishrunken:            6037976         2.83 %  learned literals
c propagations:          593704367         0.99 M  per second
c reduced:                 1003761        62.89 %  per conflict
c rephased:                     56     28502.14    interval
c restarts:                  20241        78.86    interval
c stabilizing:                   5        42.73 %  of conflicts
c subsumed:                 518455         4.67 %  of all clauses
c strengthened:              15987         0.14 %  of all clauses
c vivified:                     48         0.00 %  of all clauses
c walked:                       18     88673.33    interval
c weakened:                 670291         2.73    average size
c 
c seconds are measured in process time for solving
c 
c --- [ resources ] ----------------------------------------------------------
c 
c total process time since initialization:       600.28    seconds
c total real time since initialization:          600.33    seconds
c maximum resident set size of process:          634.02    MB
c 
c --- [ shutting down ] ------------------------------------------------------
c 
c exit 0
